p tw 25 40
0 2
0 6
6 7
6 11
10 12
10 16
16 17
16 21
20 22
2 3
2 7
7 8
7 12
12 13
12 17
17 18
17 22
22 23
3 4
3 8
8 9
8 13
13 14
13 18
18 19
18 23
23 24
4 5
4 9
9 10
9 14
14 15
14 19
19 20
19 24
24 1
5 10
10 15
15 20
20 1
